p cnf 22 9
e 1 2 3 4 0
a 5 0
e 6 7 8 0
a 9 10 0
e 11 12 0
a 13 14 0
e 15 0
a 16 17 18 19 20 0
e 21 0
a 22 0
-15 16 -9 7 -3 0
21 -7 11 17 16 0
4 -9 13 -22 -5 0
-11 18 -19 0
15 -7 13 -16 22 0
21 1 11 2 0
3 -12 -8 5 0
-9 -15 2 -12 11 0
2 -3 15 14 0
